001 002 001 001 001 002 002 001 000 000 000 000 000 001 000 000 000 000 000 000 000 -99 -99 -99 000 000 000 000 000 000 000
001 002 002 003 001 002 001 001 001 000 000 000 000 001 001 001 000 000 000 000 000 -99 000 -99 000 000 -99 000 000 000 001
001 002 002 002 002 002 002 002 001 001 000 001 000 001 001 000 000 000 000 -99 -99 000 000 000 000 000 000 000 000 000 002
001 001 002 002 002 002 002 002 001 001 001 001 001 002 002 000 000 000 000 -99 000 -99 000 000 000 000 000 000 000 000 003
001 001 002 002 003 003 002 003 001 001 001 001 001 002 003 001 000 000 000 -99 000 000 000 000 000 000 000 -99 000 003 003
001 002 002 002 002 002 002 002 002 001 001 001 001 002 002 000 000 000 000 -99 000 000 000 000 004 001 001 -99 -99 003 006
000 001 001 001 001 003 002 001 002 001 001 001 001 002 000 001 000 000 -99 -99 000 000 000 000 003 002 002 -99 -99 002 004
000 001 001 001 001 001 002 003 002 001 000 001 001 002 001 001 000 000 000 -99 000 000 000 000 001 002 001 -99 -99 002 003
000 000 000 002 002 001 002 003 002 001 001 001 001 001 001 000 000 000 000 000 000 000 000 000 000 001 000 000 001 001 002
000 000 000 001 001 002 002 002 002 001 000 001 001 001 001 000 000 000 000 000 000 000 -99 000 000 000 000 000 000 000 000
000 000 000 000 001 002 002 001 002 002 001 001 001 001 001 001 000 000 000 000 000 000 -99 000 000 000 000 000 000 000 000
000 000 000 000 001 003 003 001 001 001 001 002 002 001 001 001 000 000 000 000 000 000 -99 000 000 000 000 000 000 000 000
000 000 000 000 001 001 004 001 001 001 001 003 003 001 002 001 001 000 000 000 000 000 -99 000 000 000 000 000 000 000 002
000 000 000 000 001 001 003 002 001 002 002 002 008 006 004 002 001 000 000 000 000 000 -99 000 000 000 000 000 000 000 003
000 000 000 000 001 001 003 003 002 001 003 004 009 010 006 003 000 000 000 000 000 000 -99 000 001 000 000 000 001 010 013
000 000 000 000 001 001 003 003 002 001 004 009 011 012 008 003 000 000 000 000 000 000 -99 000 001 001 002 002 019 033 050
000 000 000 000 001 003 003 002 003 004 006 004 012 014 008 004 001 000 000 000 000 000 000 -99 001 004 004 010 016 051 033
000 000 000 000 000 002 002 002 004 003 004 007 012 015 009 005 002 000 000 000 000 000 000 001 002 006 007 026 031 078 031
000 000 000 000 000 000 001 002 004 002 002 004 011 014 007 006 003 000 000 000 000 000 000 -99 010 015 020 066 082 047 018
000 000 000 000 000 000 001 002 004 005 004 004 013 027 012 007 009 002 001 000 000 002 002 021 017 029 025 029 037 -99 -99
000 001 000 001 001 002 001 004 005 006 013 021 018 026 021 010 016 003 001 000 002 017 006 021 022 035 025 029 037 -99 -99
001 001 001 002 001 002 002 003 005 006 015 027 020 019 022 008 020 003 002 000 002 015 011 028 027 033 025 029 037 -99 -99
003 002 004 005 003 003 003 004 006 010 019 044 029 020 020 011 031 004 003 001 003 010 023 034 039 023 -99 -99 -99 -99 -99
009 008 010 008 008 006 008 008 010 020 029 033 025 022 013 012 043 006 005 003 004 010 022 034 042 019 -99 -99 -99 -99 -99
022 026 020 010 009 006 006 010 024 029 025 025 025 021 010 037 085 034 019 009 006 014 026 035 039 024 -99 -99 -99 -99 -99
068 035 030 013 007 005 004 007 009 011 015 022 023 015 015 055 087 035 024 017 010 020 044 -99 -99 -99 -99 -99 -99 -99 000
042 023 016 007 009 009 007 005 007 010 015 026 030 037 040 100 098 042 035 034 023 027 031 -99 -99 -99 -99 -99 -99 -99 000
014 012 012 007 010 006 010 003 006 014 017 028 031 019 037 060 073 044 054 083 028 033 023 020 015 -99 007 -99 -99 -99 000
004 004 004 003 004 005 003 002 005 019 024 023 042 031 025 040 065 062 057 073 039 052 019 029 016 013 008 -99 -99 -99 -99
001 001 000 000 000 001 002 003 009 026 029 042 026 035 016 033 056 071 045 056 066 075 031 029 009 015 009 -99 -99 -99 -99
000 000 000 000 000 000 002 003 012 032 047 055 039 025 024 042 054 053 027 031 033 056 010 020 004 008 005 -99 -99 -99 -99
000 -99 000 000 000 000 000 002 005 015 029 054 041 035 044 034 042 016 007 005 009 015 003 003 001 002 003 -99 -99 -99 -99
-99 -99 000 000 -99 -99 -99 001 003 003 006 018 024 053 046 023 019 006 003 001 000 000 001 000 000 000 -99 000 000 -99 -99
-99 000 000 000 -99 -99 -99 -99 000 000 000 001 008 011 009 002 003 001 001 001 000 000 000 000 000 000 000 000 000 000 -99
000 000 000 000 000 000 000 000 000 000 001 000 002 001 000 001 001 000 000 000 000 -99 000 000 000 000 000 000 000 000 -99
000 000 000 000 000 000 000 000 -99 -99 000 -99 -99 000 000 -99 -99 -99 -99 -99 000 000 000 000 000 000 000 000 000 -99 000
000 000 000 000 000 000 000 000 -99 -99 000 000 000 000 -99 -99 -99 -99 -99 -99 -99 000 000 001 000 000 000 000 000 000 000
-99 000 000 000 000 000 000 000 -99 000 -99 000 000 000 000 -99 -99 -99 000 -99 000 000 000 000 000 000 000 -99 -99 000 -99
000 000 000 000 000 000 000 000 -99 -99 000 000 000 000 -99 -99 000 000 000 -99 000 000 000 000 000 000 000 000 -99 -99 -99
000 000 000 000 000 000 000 000 -99 000 000 000 000 000 -99 000 000 000 000 -99 000 000 000 000 000 000 000 -99 -99 -99 -99
000 000 000 000 -99 000 000 -99 -99 000 000 -99 000 000 -99 000 000 000 000 000 000 -99 -99 000 000 000 000 -99 -99 -99 -99
000 000 -99 000 -99 000 000 -99 000 000 000 000 000 000 000 000 000 000 000 000 -99 -99 -99 -99 000 000 -99 -99 000 000 -99
000 000 -99 -99 000 000 000 -99 -99 000 000 000 000 000 000 000 000 -99 000 000 -99 -99 -99 000 000 000 -99 -99 -99 -99 -99
000 000 -99 -99 -99 000 000 -99 000 000 000 000 000 000 000 000 -99 -99 000 -99 -99 -99 -99 -99 000 000 -99 -99 000 -99 -99
000 004 -99 -99 000 000 000 -99 000 000 000 000 000 000 000 000 000 -99 000 000 -99 -99 -99 000 000 -99 -99 -99 000 -99 -99
000 004 -99 000 -99 000 -99 -99 000 000 000 000 000 000 000 000 000 -99 000 -99 -99 -99 -99 000 -99 -99 000 -99 -99 -99 -99
001 -99 000 000 000 000 -99 -99 -99 000 000 000 000 000 000 000 -99 -99 000 000 -99 -99 000 -99 -99 -99 000 -99 -99 -99 -99
-99 -99 -99 000 -99 -99 -99 -99 000 000 000 000 000 000 000 -99 -99 000 -99 -99 -99 -99 000 -99 -99 -99 -99 -99 -99 -99 -99
-99 -99 -99 -99 -99 -99 -99 -99 000 000 000 000 000 000 000 -99 -99 -99 -99 -99 000 000 000 -99 -99 -99 -99 000 -99 -99 -99
-99 -99 -99 -99 -99 -99 -99 -99 000 000 000 000 000 000 000 -99 -99 -99 -99 -99 000 000 -99 -99 -99 -99 -99 000 -99 -99 -99
-99 -99 -99 -99 -99 -99 -99 -99 000 000 000 000 000 000 -99 -99 -99 -99 000 000 000 000 -99 -99 -99 -99 000 -99 -99 -99 -99
-99 -99 -99 -99 -99 -99 -99 -99 -99 -99 000 -99 -99 -99 -99 -99 -99 000 000 000 000 -99 -99 -99 -99 -99 000 -99 -99 -99 -99
-99 -99 -99 -99 -99 -99 -99 -99 -99 -99 -99 -99 -99 -99 -99 -99 -99 000 000 000 -99 -99 -99 -99 -99 -99 -99 -99 -99 -99 -99
-99 -99 -99 -99 -99 -99 -99 -99 -99 -99 -99 -99 -99 -99 -99 -99 000 000 000 -99 -99 -99 -99 -99 -99 -99 -99 -99 -99 -99 -99
-99 -99 -99 -99 -99 -99 -99 -99 -99 -99 -99 -99 -99 -99 -99 -99 -99 -99 -99 -99 -99 -99 -99 -99 -99 -99 -99 -99 -99 -99 -99
